
Gurobi 9.5.1 (linux64) logging started Tue Jun  7 13:53:08 2022

Set parameter LogFile to value "../results/logs/log_Brightkite_edges_2_50_2022_06_07_11_52.log"
Gurobi Optimizer version 9.5.1 build v9.5.1rc2 (linux64)
Thread count: 8 physical cores, 8 logical processors, using up to 8 threads
Optimize a model with 4731 rows, 116456 columns and 41097 nonzeros
Model fingerprint: 0xee2319ff
Variable types: 0 continuous, 116456 integer (116456 binary)
Coefficient statistics:
  Matrix range     [1e+00, 2e+00]
  Objective range  [1e+00, 1e+00]
  Bounds range     [1e+00, 1e+00]
  RHS range        [1e+00, 5e+01]
Found heuristic solution: objective 34706.000000
Presolve removed 3544 rows and 114873 columns
Presolve time: 0.04s
Presolved: 1187 rows, 1583 columns, 4401 nonzeros
Found heuristic solution: objective 34756.000000
Variable types: 0 continuous, 1583 integer (1520 binary)

Root relaxation: objective 3.496050e+04, 1170 iterations, 0.01 seconds (0.01 work units)

    Nodes    |    Current Node    |     Objective Bounds      |     Work
 Expl Unexpl |  Obj  Depth IntInf | Incumbent    BestBd   Gap | It/Node Time

     0     0 34960.5000    0  319 34756.0000 34960.5000  0.59%     -    0s
H    0     0                    34808.000000 34960.5000  0.44%     -    0s
H    0     0                    34810.000000 34960.5000  0.43%     -    0s
H    0     0                    34811.000000 34960.5000  0.43%     -    0s
H    0     0                    34837.000000 34960.5000  0.35%     -    0s
H    0     0                    34846.000000 34960.5000  0.33%     -    0s
     0     0 34868.0000    0   80 34846.0000 34868.0000  0.06%     -    0s
H    0     0                    34859.000000 34868.0000  0.03%     -    0s
     0     0 34868.0000    0   12 34859.0000 34868.0000  0.03%     -    0s
H    0     0                    34860.000000 34868.0000  0.02%     -    0s
     0     0 34868.0000    0   12 34860.0000 34868.0000  0.02%     -    0s
H    0     0                    34861.000000 34868.0000  0.02%     -    0s
H    0     0                    34862.000000 34868.0000  0.02%     -    0s
     0     0 34868.0000    0   12 34862.0000 34868.0000  0.02%     -    0s
     0     0 34868.0000    0   12 34862.0000 34868.0000  0.02%     -    0s
H    0     0                    34866.000000 34868.0000  0.01%     -    0s
H    0     0                    34867.000000 34868.0000  0.00%     -    0s

Cutting planes:
  Gomory: 62
  Implied bound: 7
  MIR: 101
  GUB cover: 211
  Zero half: 6
  RLT: 4

Explored 1 nodes (1945 simplex iterations) in 0.34 seconds (0.26 work units)
Thread count was 8 (of 8 available processors)

Solution count 10: 34867 34866 34862 ... 34810

Optimal solution found (tolerance 0.00e+00)
Best objective 3.486700000000e+04, best bound 3.486700000000e+04, gap 0.0000%
